5748
0 0 0 0 0 0 0 0 0 0 0 1 0 0 0 0 0 0 0 0 0 1 0 1 0 0 1 0 0 1 
29 21 11 23 23 21 26 21 29 29 23 23 26 26 11 11 21 11 21 21 26 26 21 21 21 23 29 11 29 29 29 23 23 23 21 26 23 29 11 11 29 29 29 23 29 26 26 26 26 11 11 26 26 11 11 11 26 26 23 29 29 29 23 29 29 29 29 29 29 29 

Total Run Time: 102054 ms.
